c This is QMaxSAT 2017 based on 14.07
c This is Glucose 3.0
c This is MiniSat 2.2.0
c WARNING: for repeatability, setting FPU to use double precision
c card = mrwto, comp = 0, pmodel = 0, narr = 12, mct = 52, verb = 0
cr firstCPXsol 0 0 0
c top = 1525567
c |  Number of variables:    7938                                             |
c |  Number of clauses:      428883                                           |
c |  Weight of hard clauses: 1525567                                          |
c |  Number of soft clauses: 45288                                            |
c |  Number of unit soft clauses: 0                                           |
c |  Maximum Cardinality (by unit): 23999424     (0           )               |
c last restart ## conflicts  :  0 588 
o 4136 | cpuTime 0.057271 s
c Sum of weights = 1999952
c A number of soft clauses remained = 3774
c MRWTO encoding for Pseudo-Boolean Constraints
c sizeMax=4136
c No.0 Divisor=9	generated by pow1
c No.1 Divisor=8	generated by pow1
c No.2 Divisor=9	generated by pow1
c No.3 Divisor=9	generated by pow1
c p0= 9	p1= 8	p2= 9	p3= 9	
c number of digits = 5
c linkingVar[0].size = 9, linkingVar[1].size = 8, linkingVar[2].size = 9, linkingVar[3].size = 7, linkingVar[4].size = 1, 
c Pseudo-Boolean Constraints: 90893 variables and 724093 clauses
c Sum of weights = 1999952
c A number of soft clauses remained = 3774
c MRWTO encoding for Pseudo-Boolean Constraints
c sizeMax=4136
c No.0 Divisor=9	generated by pow1
c No.1 Divisor=8	generated by pow1
c No.2 Divisor=9	generated by pow1
c No.3 Divisor=9	generated by pow1
c p0= 9	p1= 8	p2= 9	p3= 9	
c number of digits = 5
c linkingVar[0].size = 9, linkingVar[1].size = 8, linkingVar[2].size = 9, linkingVar[3].size = 7, linkingVar[4].size = 1, 
c Pseudo-Boolean Constraints: 90893 variables and 724093 clauses
c Sum of weights = 1999952
c A number of soft clauses remained = 3774
c MRWTO encoding for Pseudo-Boolean Constraints
c sizeMax=4136
c No.0 Divisor=9	generated by pow1
c No.1 Divisor=8	generated by pow1
c No.2 Divisor=9	generated by pow1
c No.3 Divisor=9	generated by pow1
c p0= 9	p1= 8	p2= 9	p3= 9	
c number of digits = 5
c linkingVar[0].size = 9, linkingVar[1].size = 8, linkingVar[2].size = 9, linkingVar[3].size = 7, linkingVar[4].size = 1, 
c Pseudo-Boolean Constraints: 90893 variables and 724093 clauses
c Sum of weights = 1999952
c A number of soft clauses remained = 3774
c MRWTO encoding for Pseudo-Boolean Constraints
c sizeMax=4136
c No.0 Divisor=9	generated by pow1
c No.1 Divisor=8	generated by pow1
c No.2 Divisor=9	generated by pow1
c No.3 Divisor=9	generated by pow1
c p0= 9	p1= 8	p2= 9	p3= 9	
c number of digits = 5
c linkingVar[0].size = 9, linkingVar[1].size = 8, linkingVar[2].size = 9, linkingVar[3].size = 7, linkingVar[4].size = 1, 
c Pseudo-Boolean Constraints: 90893 variables and 724093 clauses
c Sum of weights = 1999952
c A number of soft clauses remained = 3774
c MRWTO encoding for Pseudo-Boolean Constraints
c sizeMax=4136
c No.0 Divisor=9	generated by pow1
c No.1 Divisor=8	generated by pow1
c No.2 Divisor=9	generated by pow1
c No.3 Divisor=9	generated by pow1
c p0= 9	p1= 8	p2= 9	p3= 9	
c number of digits = 5
c linkingVar[0].size = 9, linkingVar[1].size = 8, linkingVar[2].size = 9, linkingVar[3].size = 7, linkingVar[4].size = 1, 
c Pseudo-Boolean Constraints: 90893 variables and 724093 clauses
c Sum of weights = 1999952
c A number of soft clauses remained = 3774
c MRWTO encoding for Pseudo-Boolean Constraints
c sizeMax=4136
c No.0 Divisor=9	generated by pow1
c No.1 Divisor=8	generated by pow1
c No.2 Divisor=9	generated by pow1
c No.3 Divisor=9	generated by pow1
c p0= 9	p1= 8	p2= 9	p3= 9	
c number of digits = 5
c linkingVar[0].size = 9, linkingVar[1].size = 8, linkingVar[2].size = 9, linkingVar[3].size = 7, linkingVar[4].size = 1, 
c Pseudo-Boolean Constraints: 90893 variables and 724093 clauses
c Sum of weights = 1999952
c A number of soft clauses remained = 3774
c MRWTO encoding for Pseudo-Boolean Constraints
c sizeMax=4136
c No.0 Divisor=9	generated by pow1
c No.1 Divisor=8	generated by pow1
c No.2 Divisor=9	generated by pow1
c No.3 Divisor=9	generated by pow1
c p0= 9	p1= 8	p2= 9	p3= 9	
c number of digits = 5
c linkingVar[0].size = 9, linkingVar[1].size = 8, linkingVar[2].size = 9, linkingVar[3].size = 7, linkingVar[4].size = 1, 
c Pseudo-Boolean Constraints: 90893 variables and 724093 clauses
c Sum of weights = 1999952
c A number of soft clauses remained = 3774
c MRWTO encoding for Pseudo-Boolean Constraints
c sizeMax=4136
c No.0 Divisor=9	generated by pow1
c No.1 Divisor=8	generated by pow1
c No.2 Divisor=9	generated by pow1
c No.3 Divisor=9	generated by pow1
c p0= 9	p1= 8	p2= 9	p3= 9	
c number of digits = 5
c linkingVar[0].size = 9, linkingVar[1].size = 8, linkingVar[2].size = 9, linkingVar[3].size = 7, linkingVar[4].size = 1, 
c Pseudo-Boolean Constraints: 90893 variables and 724093 clauses
c Sum of weights = 1999952
c A number of soft clauses remained = 3774
c MRWTO encoding for Pseudo-Boolean Constraints
c sizeMax=4136
c No.0 Divisor=9	generated by pow1
c No.1 Divisor=8	generated by pow1
c No.2 Divisor=9	generated by pow1
c No.3 Divisor=9	generated by pow1
c p0= 9	p1= 8	p2= 9	p3= 9	
c number of digits = 5
c linkingVar[0].size = 9, linkingVar[1].size = 8, linkingVar[2].size = 9, linkingVar[3].size = 7, linkingVar[4].size = 1, 
c Pseudo-Boolean Constraints: 90893 variables and 724093 clauses
c Sum of weights = 1999952
c A number of soft clauses remained = 3774
c MRWTO encoding for Pseudo-Boolean Constraints
c sizeMax=4136
c No.0 Divisor=9	generated by pow1
c No.1 Divisor=8	generated by pow1
c No.2 Divisor=9	generated by pow1
c No.3 Divisor=9	generated by pow1
c p0= 9	p1= 8	p2= 9	p3= 9	
c number of digits = 5
c linkingVar[0].size = 9, linkingVar[1].size = 8, linkingVar[2].size = 9, linkingVar[3].size = 7, linkingVar[4].size = 1, 
c Pseudo-Boolean Constraints: 90893 variables and 724093 clauses
c Sum of weights = 1999952
c A number of soft clauses remained = 3774
c MRWTO encoding for Pseudo-Boolean Constraints
c sizeMax=4136
c No.0 Divisor=9	generated by pow1
c No.1 Divisor=8	generated by pow1
c No.2 Divisor=9	generated by pow1
c No.3 Divisor=9	generated by pow1
c p0= 9	p1= 8	p2= 9	p3= 9	
c number of digits = 5
c linkingVar[0].size = 9, linkingVar[1].size = 8, linkingVar[2].size = 9, linkingVar[3].size = 7, linkingVar[4].size = 1, 
c Pseudo-Boolean Constraints: 90893 variables and 724093 clauses
c Sum of weights = 1999952
c A number of soft clauses remained = 3774
c MRWTO encoding for Pseudo-Boolean Constraints
c sizeMax=4136
c No.0 Divisor=9	generated by pow1
c No.1 Divisor=8	generated by pow1
c No.2 Divisor=9	generated by pow1
c No.3 Divisor=9	generated by pow1
c p0= 9	p1= 8	p2= 9	p3= 9	
c number of digits = 5
c linkingVar[0].size = 9, linkingVar[1].size = 8, linkingVar[2].size = 9, linkingVar[3].size = 7, linkingVar[4].size = 1, 
c Pseudo-Boolean Constraints: 90893 variables and 724093 clauses
c last restart ## conflicts  :  394 23972 
o 4134 | cpuTime 45.9298 s
c last restart ## conflicts  :  325 14791 
o 3959 | cpuTime 67.3517 s
c last restart ## conflicts  :  414 18151 
o 3669 | cpuTime 235.138 s
c last restart ## conflicts  :  128 13838 
o 3462 | cpuTime 461.66 s
c last restart ## conflicts  :  153 16304 
o 3438 | cpuTime 1126.15 s
c last restart ## conflicts  :  109 19048 
o 3356 | cpuTime 3129.01 s
c last restart ## conflicts  :  217 22726 
o 3242 | cpuTime 3414.73 s
s UNKNOWN
c Search is stopped by a limit (maybe time-limit)
cr positiVarArr: [ | 19(1->8) | 126(1->52) | 159(1->22) | 236(1->36) | 291(1->28) | 351(1->25) | 393(1->4) | 482(1->30) | 518(1->3) | 590(1->12) | 683(1->42) | 721(1->17) | 801(2->34) | 839(3->9) | 895(4->2) | 971(5->15) | 1052(6->33) | 1125(7->43) | 1186(8->41) | 1214(9->6) | 1276(10->5) | 1355(11->21) | 1411(12->14) | 1455(13->1) | 1549(14->26) | 1580(15->1) | 1676(16->27) | 1722(17->10) | 1774(18->1) | 1883(19->45) | 1894(20->1) | 1965(21->1) | 2059(22->32) | 2137(23->47) | 2144(24->1) | 2266(25->50) | 2279(26->1) | 2338(27->1) | 2451(28->46) | 2519(29->51) | 2560(30->29) | 2612(31->18) | 2680(32->23) | 2739(33->19) | 2780(34->1) | 2895(35->49) | 2944(36->35) | 3010(37->38) | 3059(38->24) | 3135(39->37) | 3200(40->39) | 3231(41->7) | 3331(42->44) | 3398(43->48) | 3429(44->16) | 3507(45->31) | 3559(46->20) | 3642(47->40) | 3657(48->1) | 3726(49->1) | 3804(50->13) | 3844(51->1) | 3928(52->11) | ]
cr the 1-th chain: [ 1->8->41->7->43->48->1 ] (#non-depot=5) {#cumul.=6}
cr the 2-th chain: [ 1->52->11->21->1 ] (#non-depot=3) {#cumul.=9}
cr the 3-th chain: [ 1->22->32->23->47->40->39->37->38->24->1 ] (#non-depot=9) {#cumul.=18}
cr the 4-th chain: [ 1->36->35->49->1 ] (#non-depot=3) {#cumul.=21}
cr the 5-th chain: [ 1->28->46->20->1 ] (#non-depot=3) {#cumul.=24}
cr the 6-th chain: [ 1->25->50->13->1 ] (#non-depot=3) {#cumul.=27}
cr the 7-th chain: [ 1->4->2->34->1 ] (#non-depot=3) {#cumul.=30}
cr the 8-th chain: [ 1->30->29->51->1 ] (#non-depot=3) {#cumul.=33}
cr the 9-th chain: [ 1->3->9->6->33->19->45->31->18->1 ] (#non-depot=8) {#cumul.=41}
cr the 10-th chain: [ 1->12->14->26->1 ] (#non-depot=3) {#cumul.=44}
cr the 11-th chain: [ 1->42->44->16->27->1 ] (#non-depot=4) {#cumul.=48}
cr the 12-th chain: [ 1->17->10->5->15->1 ] (#non-depot=4) {#cumul.=52}
c Latest Answer = 0 by 8 loops
c restarts              : 32475
c conflicts             : 6951105        (1933 /sec)
c decisions             : 101588979      (0.00 % random) (28246 /sec)
c propagations          : 35570967946    (9890197 /sec)
c conflict literals     : 676299830      (31.70 % deleted)
c Memory used           : 1420.00 MB
c CPU time              : 3596.59 s
